nK = 2252;
nT = 8;
nI = 21;
L = 29;
TT = 484;
np = 1;
nc = 3;
b = [55, 23, 44, 49, 31, 49, 46, 29, 70, 60, 70, 54, 69, 34, 49, 53, 23, 55, 58, 67, 40];
d = [139, 63, 120, 136, 138, 93, 101, 107, 112, 132, 124, 150, 141, 55, 91, 132, 69, 91, 137, 124, 129];
m = [2.1, 1.1, 1.7, 1.8, 1.9, 1.6, 1.2, 2.2, 2.3, 1.2, 1.7, 1.7, 1.4, 1.4, 1, 1.4, 1.1, 1.1, 1, 2, 1.5];
pt = [0.26, 0.24, 0.29, 0.33, 0.29, 0.21, 0.27, 0.34];
st = [15.08, 12, 15.66, 13.2, 15.66, 11.13, 14.58, 15.98];
arc = {<1, 0, 1, 1, 0, 0, 0, [1, 1, 1, 1, 1, 1, 1, 1]>, <2, 1, 2, 1, 0, 0, 0, [1, 1, 1, 1, 1, 1, 1, 1]>, <3, 2, 3, 1, 0, 0, 0, [1, 1, 1, 1, 1, 1, 1, 1]>, <4, 3, 4, 1, 0, 0, 0, [1, 1, 1, 1, 1, 1, 1, 1]>, <5, 4, 5, 1, 0, 0, 0, [1, 1, 1, 1, 1, 1, 1, 1]>, <6, 5, 6, 1, 0, 0, 0, [1, 1, 1, 1, 1, 1, 1, 1]>, <7, 6, 7, 1, 0, 0, 0, [1, 1, 1, 1, 1, 1, 1, 1]>, <8, 7, 8, 1, 0, 0, 0, [1, 1, 1, 1, 1, 1, 1, 1]>, <9, 8, 9, 1, 0, 0, 0, [1, 1, 1, 1, 1, 1, 1, 1]>, <10, 9, 10, 1, 0, 0, 0, [1, 1, 1, 1, 1, 1, 1, 1]>, <11, 10, 11, 1, 0, 0, 0, [1, 1, 1, 1, 1, 1, 1, 1]>, <12, 11, 12, 1, 0, 0, 0, [1, 1, 1, 1, 1, 1, 1, 1]>, <13, 12, 13, 1, 0, 0, 0, [1, 1, 1, 1, 1, 1, 1, 1]>, <14, 13, 14, 1, 0, 0, 0, [1, 1, 1, 1, 1, 1, 1, 1]>, <15, 14, 15, 1, 0, 0, 0, [1, 1, 1, 1, 1, 1, 1, 1]>, <16, 15, 16, 1, 0, 0, 0, [1, 1, 1, 1, 1, 1, 1, 1]>, <17, 16, 17, 1, 0, 0, 0, [1, 1, 1, 1, 1, 1, 1, 1]>, <18, 17, 18, 1, 0, 0, 0, [1, 1, 1, 1, 1, 1, 1, 1]>, <19, 18, 19, 1, 0, 0, 0, [1, 1, 1, 1, 1, 1, 1, 1]>, <20, 19, 20, 1, 0, 0, 0, [1, 1, 1, 1, 1, 1, 1, 1]>, <21, 20, 21, 1, 0, 0, 0, [1, 1, 1, 1, 1, 1, 1, 1]>, <22, 21, 22, 1, 0, 0, 0, [1, 1, 1, 1, 1, 1, 1, 1]>, <23, 22, 23, 1, 0, 0, 0, [1, 1, 1, 1, 1, 1, 1, 1]>, <24, 23, 24, 1, 0, 0, 0, [1, 1, 1, 1, 1, 1, 1, 1]>, <25, 24, 25, 1, 0, 0, 0, [1, 1, 1, 1, 1, 1, 1, 1]>, <26, 25, 26, 1, 0, 0, 0, [1, 1, 1, 1, 1, 1, 1, 1]>, <27, 26, 27, 1, 0, 0, 0, [1, 1, 1, 1, 1, 1, 1, 1]>, <28, 27, 28, 1, 0, 0, 0, [1, 1, 1, 1, 1, 1, 1, 1]>, <29, 28, 29, 1, 0, 0, 0, [1, 1, 1, 1, 1, 1, 1, 1]>, <30, 0, 12, 12, 1, 0, 0, [0, 0, 0, 0, 1, 1, 0, 0]>, <31, 1, 13, 12, 1, 0, 0, [0, 0, 0, 0, 1, 1, 0, 0]>, <32, 2, 14, 12, 1, 0, 0, [0, 0, 0, 0, 1, 1, 0, 0]>, <33, 3, 15, 12, 1, 0, 0, [0, 0, 0, 0, 1, 1, 0, 0]>, <34, 4, 16, 12, 1, 0, 0, [0, 0, 0, 0, 1, 1, 0, 0]>, <35, 5, 17, 12, 1, 0, 0, [0, 0, 0, 0, 1, 1, 0, 0]>, <36, 8, 20, 12, 1, 0, 0, [0, 0, 0, 0, 1, 1, 0, 0]>, <37, 9, 21, 12, 1, 0, 0, [0, 0, 0, 0, 1, 1, 0, 0]>, <38, 10, 22, 12, 1, 0, 0, [0, 0, 0, 0, 1, 1, 0, 0]>, <39, 11, 23, 12, 1, 0, 0, [0, 0, 0, 0, 1, 1, 0, 0]>, <40, 12, 24, 12, 1, 0, 0, [0, 0, 0, 0, 1, 1, 0, 0]>, <41, 13, 25, 12, 1, 0, 0, [0, 0, 0, 0, 1, 1, 0, 0]>, <42, 14, 26, 12, 1, 0, 0, [0, 0, 0, 0, 1, 1, 0, 0]>, <43, 15, 27, 12, 1, 0, 0, [0, 0, 0, 0, 1, 1, 0, 0]>, <44, 16, 28, 12, 1, 0, 0, [0, 0, 0, 0, 1, 1, 0, 0]>, <45, 17, 29, 12, 1, 0, 0, [0, 0, 0, 0, 1, 1, 0, 0]>, <46, 0, 13, 13, 2, 0, 0, [0, 1, 1, 0, 0, 0, 0, 0]>, <47, 1, 14, 13, 2, 0, 0, [0, 1, 1, 0, 0, 0, 0, 0]>, <48, 2, 15, 13, 2, 0, 0, [0, 1, 1, 0, 0, 0, 0, 0]>, <49, 3, 16, 13, 2, 0, 0, [0, 1, 1, 0, 0, 0, 0, 0]>, <50, 4, 17, 13, 2, 0, 0, [0, 1, 1, 0, 0, 0, 0, 0]>, <51, 5, 18, 13, 2, 0, 0, [0, 1, 1, 0, 0, 0, 0, 0]>, <52, 7, 20, 13, 2, 0, 0, [0, 1, 1, 0, 0, 0, 0, 0]>, <53, 8, 21, 13, 2, 0, 0, [0, 1, 1, 0, 0, 0, 0, 0]>, <54, 9, 22, 13, 2, 0, 0, [0, 1, 1, 0, 0, 0, 0, 0]>, <55, 10, 23, 13, 2, 0, 0, [0, 1, 1, 0, 0, 0, 0, 0]>, <56, 11, 24, 13, 2, 0, 0, [0, 1, 1, 0, 0, 0, 0, 0]>, <57, 12, 25, 13, 2, 0, 0, [0, 1, 1, 0, 0, 0, 0, 0]>, <58, 13, 26, 13, 2, 0, 0, [0, 1, 1, 0, 0, 0, 0, 0]>, <59, 14, 27, 13, 2, 0, 0, [0, 1, 1, 0, 0, 0, 0, 0]>, <60, 15, 28, 13, 2, 0, 0, [0, 1, 1, 0, 0, 0, 0, 0]>, <61, 16, 29, 13, 2, 0, 0, [0, 1, 1, 0, 0, 0, 0, 0]>, <62, 0, 13, 13, 3, 0, 1, [0, 0, 0, 1, 1, 0, 0, 0]>, <63, 1, 14, 13, 3, 0, 1, [0, 0, 0, 1, 1, 0, 0, 0]>, <64, 2, 15, 13, 3, 0, 1, [0, 0, 0, 1, 1, 0, 0, 0]>, <65, 3, 16, 13, 3, 0, 1, [0, 0, 0, 1, 1, 0, 0, 0]>, <66, 4, 17, 13, 3, 0, 1, [0, 0, 0, 1, 1, 0, 0, 0]>, <67, 5, 18, 13, 3, 0, 1, [0, 0, 0, 1, 1, 0, 0, 0]>, <68, 7, 20, 13, 3, 0, 1, [0, 0, 0, 1, 1, 0, 0, 0]>, <69, 8, 21, 13, 3, 0, 1, [0, 0, 0, 1, 1, 0, 0, 0]>, <70, 9, 22, 13, 3, 0, 1, [0, 0, 0, 1, 1, 0, 0, 0]>, <71, 10, 23, 13, 3, 0, 1, [0, 0, 0, 1, 1, 0, 0, 0]>, <72, 11, 24, 13, 3, 0, 1, [0, 0, 0, 1, 1, 0, 0, 0]>, <73, 12, 25, 13, 3, 0, 1, [0, 0, 0, 1, 1, 0, 0, 0]>, <74, 13, 26, 13, 3, 0, 1, [0, 0, 0, 1, 1, 0, 0, 0]>, <75, 14, 27, 13, 3, 0, 1, [0, 0, 0, 1, 1, 0, 0, 0]>, <76, 15, 28, 13, 3, 0, 1, [0, 0, 0, 1, 1, 0, 0, 0]>, <77, 16, 29, 13, 3, 0, 1, [0, 0, 0, 1, 1, 0, 0, 0]>, <78, 0, 12, 12, 4, 0, 0, [1, 1, 0, 0, 0, 0, 0, 0]>, <79, 1, 13, 12, 4, 0, 0, [1, 1, 0, 0, 0, 0, 0, 0]>, <80, 2, 14, 12, 4, 0, 0, [1, 1, 0, 0, 0, 0, 0, 0]>, <81, 3, 15, 12, 4, 0, 0, [1, 1, 0, 0, 0, 0, 0, 0]>, <82, 4, 16, 12, 4, 0, 0, [1, 1, 0, 0, 0, 0, 0, 0]>, <83, 5, 17, 12, 4, 0, 0, [1, 1, 0, 0, 0, 0, 0, 0]>, <84, 8, 20, 12, 4, 0, 0, [1, 1, 0, 0, 0, 0, 0, 0]>, <85, 9, 21, 12, 4, 0, 0, [1, 1, 0, 0, 0, 0, 0, 0]>, <86, 10, 22, 12, 4, 0, 0, [1, 1, 0, 0, 0, 0, 0, 0]>, <87, 11, 23, 12, 4, 0, 0, [1, 1, 0, 0, 0, 0, 0, 0]>, <88, 12, 24, 12, 4, 0, 0, [1, 1, 0, 0, 0, 0, 0, 0]>, <89, 13, 25, 12, 4, 0, 0, [1, 1, 0, 0, 0, 0, 0, 0]>, <90, 14, 26, 12, 4, 0, 0, [1, 1, 0, 0, 0, 0, 0, 0]>, <91, 15, 27, 12, 4, 0, 0, [1, 1, 0, 0, 0, 0, 0, 0]>, <92, 16, 28, 12, 4, 0, 0, [1, 1, 0, 0, 0, 0, 0, 0]>, <93, 17, 29, 12, 4, 0, 0, [1, 1, 0, 0, 0, 0, 0, 0]>, <94, 0, 15, 15, 5, 1, 0, [0, 0, 0, 0, 0, 0, 1, 1]>, <95, 1, 16, 15, 5, 1, 0, [0, 0, 0, 0, 0, 0, 1, 1]>, <96, 2, 17, 15, 5, 1, 0, [0, 0, 0, 0, 0, 0, 1, 1]>, <97, 3, 18, 15, 5, 1, 0, [0, 0, 0, 0, 0, 0, 1, 1]>, <98, 4, 19, 15, 5, 1, 0, [0, 0, 0, 0, 0, 0, 1, 1]>, <99, 5, 20, 15, 5, 1, 0, [0, 0, 0, 0, 0, 0, 1, 1]>, <100, 6, 21, 15, 5, 1, 0, [0, 0, 0, 0, 0, 0, 1, 1]>, <101, 7, 22, 15, 5, 1, 0, [0, 0, 0, 0, 0, 0, 1, 1]>, <102, 8, 23, 15, 5, 1, 0, [0, 0, 0, 0, 0, 0, 1, 1]>, <103, 9, 24, 15, 5, 1, 0, [0, 0, 0, 0, 0, 0, 1, 1]>, <104, 10, 25, 15, 5, 1, 0, [0, 0, 0, 0, 0, 0, 1, 1]>, <105, 11, 26, 15, 5, 1, 0, [0, 0, 0, 0, 0, 0, 1, 1]>, <106, 12, 27, 15, 5, 1, 0, [0, 0, 0, 0, 0, 0, 1, 1]>, <107, 13, 28, 15, 5, 1, 0, [0, 0, 0, 0, 0, 0, 1, 1]>, <108, 14, 29, 15, 5, 1, 0, [0, 0, 0, 0, 0, 0, 1, 1]>, <109, 0, 13, 13, 6, 0, 0, [0, 0, 0, 0, 0, 1, 1, 0]>, <110, 1, 14, 13, 6, 0, 0, [0, 0, 0, 0, 0, 1, 1, 0]>, <111, 2, 15, 13, 6, 0, 0, [0, 0, 0, 0, 0, 1, 1, 0]>, <112, 3, 16, 13, 6, 0, 0, [0, 0, 0, 0, 0, 1, 1, 0]>, <113, 4, 17, 13, 6, 0, 0, [0, 0, 0, 0, 0, 1, 1, 0]>, <114, 5, 18, 13, 6, 0, 0, [0, 0, 0, 0, 0, 1, 1, 0]>, <115, 7, 20, 13, 6, 0, 0, [0, 0, 0, 0, 0, 1, 1, 0]>, <116, 8, 21, 13, 6, 0, 0, [0, 0, 0, 0, 0, 1, 1, 0]>, <117, 9, 22, 13, 6, 0, 0, [0, 0, 0, 0, 0, 1, 1, 0]>, <118, 10, 23, 13, 6, 0, 0, [0, 0, 0, 0, 0, 1, 1, 0]>, <119, 11, 24, 13, 6, 0, 0, [0, 0, 0, 0, 0, 1, 1, 0]>, <120, 12, 25, 13, 6, 0, 0, [0, 0, 0, 0, 0, 1, 1, 0]>, <121, 13, 26, 13, 6, 0, 0, [0, 0, 0, 0, 0, 1, 1, 0]>, <122, 14, 27, 13, 6, 0, 0, [0, 0, 0, 0, 0, 1, 1, 0]>, <123, 15, 28, 13, 6, 0, 0, [0, 0, 0, 0, 0, 1, 1, 0]>, <124, 16, 29, 13, 6, 0, 0, [0, 0, 0, 0, 0, 1, 1, 0]>, <125, 1, 12, 11, 7, 0, 0, [0, 0, 1, 1, 0, 0, 0, 0]>, <126, 2, 13, 11, 7, 0, 0, [0, 0, 1, 1, 0, 0, 0, 0]>, <127, 3, 14, 11, 7, 0, 0, [0, 0, 1, 1, 0, 0, 0, 0]>, <128, 4, 15, 11, 7, 0, 0, [0, 0, 1, 1, 0, 0, 0, 0]>, <129, 5, 16, 11, 7, 0, 0, [0, 0, 1, 1, 0, 0, 0, 0]>, <130, 9, 20, 11, 7, 0, 0, [0, 0, 1, 1, 0, 0, 0, 0]>, <131, 10, 21, 11, 7, 0, 0, [0, 0, 1, 1, 0, 0, 0, 0]>, <132, 11, 22, 11, 7, 0, 0, [0, 0, 1, 1, 0, 0, 0, 0]>, <133, 12, 23, 11, 7, 0, 0, [0, 0, 1, 1, 0, 0, 0, 0]>, <134, 13, 24, 11, 7, 0, 0, [0, 0, 1, 1, 0, 0, 0, 0]>, <135, 14, 25, 11, 7, 0, 0, [0, 0, 1, 1, 0, 0, 0, 0]>, <136, 15, 26, 11, 7, 0, 0, [0, 0, 1, 1, 0, 0, 0, 0]>, <137, 16, 27, 11, 7, 0, 0, [0, 0, 1, 1, 0, 0, 0, 0]>, <138, 17, 28, 11, 7, 0, 0, [0, 0, 1, 1, 0, 0, 0, 0]>, <139, 18, 29, 11, 7, 0, 0, [0, 0, 1, 1, 0, 0, 0, 0]>, <140, 0, 15, 15, 8, 0, 0, [0, 0, 0, 0, 0, 1, 1, 0]>, <141, 1, 16, 15, 8, 0, 0, [0, 0, 0, 0, 0, 1, 1, 0]>, <142, 2, 17, 15, 8, 0, 0, [0, 0, 0, 0, 0, 1, 1, 0]>, <143, 3, 18, 15, 8, 0, 0, [0, 0, 0, 0, 0, 1, 1, 0]>, <144, 4, 19, 15, 8, 0, 0, [0, 0, 0, 0, 0, 1, 1, 0]>, <145, 5, 20, 15, 8, 0, 0, [0, 0, 0, 0, 0, 1, 1, 0]>, <146, 6, 21, 15, 8, 0, 0, [0, 0, 0, 0, 0, 1, 1, 0]>, <147, 7, 22, 15, 8, 0, 0, [0, 0, 0, 0, 0, 1, 1, 0]>, <148, 8, 23, 15, 8, 0, 0, [0, 0, 0, 0, 0, 1, 1, 0]>, <149, 9, 24, 15, 8, 0, 0, [0, 0, 0, 0, 0, 1, 1, 0]>, <150, 10, 25, 15, 8, 0, 0, [0, 0, 0, 0, 0, 1, 1, 0]>, <151, 11, 26, 15, 8, 0, 0, [0, 0, 0, 0, 0, 1, 1, 0]>, <152, 12, 27, 15, 8, 0, 0, [0, 0, 0, 0, 0, 1, 1, 0]>, <153, 13, 28, 15, 8, 0, 0, [0, 0, 0, 0, 0, 1, 1, 0]>, <154, 14, 29, 15, 8, 0, 0, [0, 0, 0, 0, 0, 1, 1, 0]>, <155, 1, 12, 11, 9, 1, 0, [0, 1, 1, 0, 0, 0, 0, 0]>, <156, 2, 13, 11, 9, 1, 0, [0, 1, 1, 0, 0, 0, 0, 0]>, <157, 3, 14, 11, 9, 1, 0, [0, 1, 1, 0, 0, 0, 0, 0]>, <158, 4, 15, 11, 9, 1, 0, [0, 1, 1, 0, 0, 0, 0, 0]>, <159, 5, 16, 11, 9, 1, 0, [0, 1, 1, 0, 0, 0, 0, 0]>, <160, 9, 20, 11, 9, 1, 0, [0, 1, 1, 0, 0, 0, 0, 0]>, <161, 10, 21, 11, 9, 1, 0, [0, 1, 1, 0, 0, 0, 0, 0]>, <162, 11, 22, 11, 9, 1, 0, [0, 1, 1, 0, 0, 0, 0, 0]>, <163, 12, 23, 11, 9, 1, 0, [0, 1, 1, 0, 0, 0, 0, 0]>, <164, 13, 24, 11, 9, 1, 0, [0, 1, 1, 0, 0, 0, 0, 0]>, <165, 14, 25, 11, 9, 1, 0, [0, 1, 1, 0, 0, 0, 0, 0]>, <166, 15, 26, 11, 9, 1, 0, [0, 1, 1, 0, 0, 0, 0, 0]>, <167, 16, 27, 11, 9, 1, 0, [0, 1, 1, 0, 0, 0, 0, 0]>, <168, 17, 28, 11, 9, 1, 0, [0, 1, 1, 0, 0, 0, 0, 0]>, <169, 18, 29, 11, 9, 1, 0, [0, 1, 1, 0, 0, 0, 0, 0]>, <170, 0, 15, 15, 10, 0, 0, [0, 1, 1, 0, 0, 0, 0, 0]>, <171, 1, 16, 15, 10, 0, 0, [0, 1, 1, 0, 0, 0, 0, 0]>, <172, 2, 17, 15, 10, 0, 0, [0, 1, 1, 0, 0, 0, 0, 0]>, <173, 3, 18, 15, 10, 0, 0, [0, 1, 1, 0, 0, 0, 0, 0]>, <174, 4, 19, 15, 10, 0, 0, [0, 1, 1, 0, 0, 0, 0, 0]>, <175, 5, 20, 15, 10, 0, 0, [0, 1, 1, 0, 0, 0, 0, 0]>, <176, 6, 21, 15, 10, 0, 0, [0, 1, 1, 0, 0, 0, 0, 0]>, <177, 7, 22, 15, 10, 0, 0, [0, 1, 1, 0, 0, 0, 0, 0]>, <178, 8, 23, 15, 10, 0, 0, [0, 1, 1, 0, 0, 0, 0, 0]>, <179, 9, 24, 15, 10, 0, 0, [0, 1, 1, 0, 0, 0, 0, 0]>, <180, 10, 25, 15, 10, 0, 0, [0, 1, 1, 0, 0, 0, 0, 0]>, <181, 11, 26, 15, 10, 0, 0, [0, 1, 1, 0, 0, 0, 0, 0]>, <182, 12, 27, 15, 10, 0, 0, [0, 1, 1, 0, 0, 0, 0, 0]>, <183, 13, 28, 15, 10, 0, 0, [0, 1, 1, 0, 0, 0, 0, 0]>, <184, 14, 29, 15, 10, 0, 0, [0, 1, 1, 0, 0, 0, 0, 0]>, <185, 0, 12, 12, 11, 0, 0, [0, 0, 0, 0, 0, 1, 1, 0]>, <186, 1, 13, 12, 11, 0, 0, [0, 0, 0, 0, 0, 1, 1, 0]>, <187, 2, 14, 12, 11, 0, 0, [0, 0, 0, 0, 0, 1, 1, 0]>, <188, 3, 15, 12, 11, 0, 0, [0, 0, 0, 0, 0, 1, 1, 0]>, <189, 4, 16, 12, 11, 0, 0, [0, 0, 0, 0, 0, 1, 1, 0]>, <190, 5, 17, 12, 11, 0, 0, [0, 0, 0, 0, 0, 1, 1, 0]>, <191, 8, 20, 12, 11, 0, 0, [0, 0, 0, 0, 0, 1, 1, 0]>, <192, 9, 21, 12, 11, 0, 0, [0, 0, 0, 0, 0, 1, 1, 0]>, <193, 10, 22, 12, 11, 0, 0, [0, 0, 0, 0, 0, 1, 1, 0]>, <194, 11, 23, 12, 11, 0, 0, [0, 0, 0, 0, 0, 1, 1, 0]>, <195, 12, 24, 12, 11, 0, 0, [0, 0, 0, 0, 0, 1, 1, 0]>, <196, 13, 25, 12, 11, 0, 0, [0, 0, 0, 0, 0, 1, 1, 0]>, <197, 14, 26, 12, 11, 0, 0, [0, 0, 0, 0, 0, 1, 1, 0]>, <198, 15, 27, 12, 11, 0, 0, [0, 0, 0, 0, 0, 1, 1, 0]>, <199, 16, 28, 12, 11, 0, 0, [0, 0, 0, 0, 0, 1, 1, 0]>, <200, 17, 29, 12, 11, 0, 0, [0, 0, 0, 0, 0, 1, 1, 0]>, <201, 0, 14, 14, 12, 0, 1, [1, 0, 0, 0, 0, 0, 0, 1]>, <202, 1, 15, 14, 12, 0, 1, [1, 0, 0, 0, 0, 0, 0, 1]>, <203, 2, 16, 14, 12, 0, 1, [1, 0, 0, 0, 0, 0, 0, 1]>, <204, 3, 17, 14, 12, 0, 1, [1, 0, 0, 0, 0, 0, 0, 1]>, <205, 4, 18, 14, 12, 0, 1, [1, 0, 0, 0, 0, 0, 0, 1]>, <206, 5, 19, 14, 12, 0, 1, [1, 0, 0, 0, 0, 0, 0, 1]>, <207, 6, 20, 14, 12, 0, 1, [1, 0, 0, 0, 0, 0, 0, 1]>, <208, 7, 21, 14, 12, 0, 1, [1, 0, 0, 0, 0, 0, 0, 1]>, <209, 8, 22, 14, 12, 0, 1, [1, 0, 0, 0, 0, 0, 0, 1]>, <210, 9, 23, 14, 12, 0, 1, [1, 0, 0, 0, 0, 0, 0, 1]>, <211, 10, 24, 14, 12, 0, 1, [1, 0, 0, 0, 0, 0, 0, 1]>, <212, 11, 25, 14, 12, 0, 1, [1, 0, 0, 0, 0, 0, 0, 1]>, <213, 12, 26, 14, 12, 0, 1, [1, 0, 0, 0, 0, 0, 0, 1]>, <214, 13, 27, 14, 12, 0, 1, [1, 0, 0, 0, 0, 0, 0, 1]>, <215, 14, 28, 14, 12, 0, 1, [1, 0, 0, 0, 0, 0, 0, 1]>, <216, 15, 29, 14, 12, 0, 1, [1, 0, 0, 0, 0, 0, 0, 1]>, <217, 0, 13, 13, 13, 0, 0, [0, 0, 1, 1, 0, 0, 0, 0]>, <218, 1, 14, 13, 13, 0, 0, [0, 0, 1, 1, 0, 0, 0, 0]>, <219, 2, 15, 13, 13, 0, 0, [0, 0, 1, 1, 0, 0, 0, 0]>, <220, 3, 16, 13, 13, 0, 0, [0, 0, 1, 1, 0, 0, 0, 0]>, <221, 4, 17, 13, 13, 0, 0, [0, 0, 1, 1, 0, 0, 0, 0]>, <222, 5, 18, 13, 13, 0, 0, [0, 0, 1, 1, 0, 0, 0, 0]>, <223, 7, 20, 13, 13, 0, 0, [0, 0, 1, 1, 0, 0, 0, 0]>, <224, 8, 21, 13, 13, 0, 0, [0, 0, 1, 1, 0, 0, 0, 0]>, <225, 9, 22, 13, 13, 0, 0, [0, 0, 1, 1, 0, 0, 0, 0]>, <226, 10, 23, 13, 13, 0, 0, [0, 0, 1, 1, 0, 0, 0, 0]>, <227, 11, 24, 13, 13, 0, 0, [0, 0, 1, 1, 0, 0, 0, 0]>, <228, 12, 25, 13, 13, 0, 0, [0, 0, 1, 1, 0, 0, 0, 0]>, <229, 13, 26, 13, 13, 0, 0, [0, 0, 1, 1, 0, 0, 0, 0]>, <230, 14, 27, 13, 13, 0, 0, [0, 0, 1, 1, 0, 0, 0, 0]>, <231, 15, 28, 13, 13, 0, 0, [0, 0, 1, 1, 0, 0, 0, 0]>, <232, 16, 29, 13, 13, 0, 0, [0, 0, 1, 1, 0, 0, 0, 0]>, <233, 0, 14, 14, 14, 0, 0, [0, 0, 0, 0, 1, 1, 0, 0]>, <234, 1, 15, 14, 14, 0, 0, [0, 0, 0, 0, 1, 1, 0, 0]>, <235, 2, 16, 14, 14, 0, 0, [0, 0, 0, 0, 1, 1, 0, 0]>, <236, 3, 17, 14, 14, 0, 0, [0, 0, 0, 0, 1, 1, 0, 0]>, <237, 4, 18, 14, 14, 0, 0, [0, 0, 0, 0, 1, 1, 0, 0]>, <238, 5, 19, 14, 14, 0, 0, [0, 0, 0, 0, 1, 1, 0, 0]>, <239, 6, 20, 14, 14, 0, 0, [0, 0, 0, 0, 1, 1, 0, 0]>, <240, 7, 21, 14, 14, 0, 0, [0, 0, 0, 0, 1, 1, 0, 0]>, <241, 8, 22, 14, 14, 0, 0, [0, 0, 0, 0, 1, 1, 0, 0]>, <242, 9, 23, 14, 14, 0, 0, [0, 0, 0, 0, 1, 1, 0, 0]>, <243, 10, 24, 14, 14, 0, 0, [0, 0, 0, 0, 1, 1, 0, 0]>, <244, 11, 25, 14, 14, 0, 0, [0, 0, 0, 0, 1, 1, 0, 0]>, <245, 12, 26, 14, 14, 0, 0, [0, 0, 0, 0, 1, 1, 0, 0]>, <246, 13, 27, 14, 14, 0, 0, [0, 0, 0, 0, 1, 1, 0, 0]>, <247, 14, 28, 14, 14, 0, 0, [0, 0, 0, 0, 1, 1, 0, 0]>, <248, 15, 29, 14, 14, 0, 0, [0, 0, 0, 0, 1, 1, 0, 0]>, <249, 1, 12, 11, 15, 0, 1, [0, 0, 0, 0, 1, 1, 0, 0]>, <250, 2, 13, 11, 15, 0, 1, [0, 0, 0, 0, 1, 1, 0, 0]>, <251, 3, 14, 11, 15, 0, 1, [0, 0, 0, 0, 1, 1, 0, 0]>, <252, 4, 15, 11, 15, 0, 1, [0, 0, 0, 0, 1, 1, 0, 0]>, <253, 5, 16, 11, 15, 0, 1, [0, 0, 0, 0, 1, 1, 0, 0]>, <254, 9, 20, 11, 15, 0, 1, [0, 0, 0, 0, 1, 1, 0, 0]>, <255, 10, 21, 11, 15, 0, 1, [0, 0, 0, 0, 1, 1, 0, 0]>, <256, 11, 22, 11, 15, 0, 1, [0, 0, 0, 0, 1, 1, 0, 0]>, <257, 12, 23, 11, 15, 0, 1, [0, 0, 0, 0, 1, 1, 0, 0]>, <258, 13, 24, 11, 15, 0, 1, [0, 0, 0, 0, 1, 1, 0, 0]>, <259, 14, 25, 11, 15, 0, 1, [0, 0, 0, 0, 1, 1, 0, 0]>, <260, 15, 26, 11, 15, 0, 1, [0, 0, 0, 0, 1, 1, 0, 0]>, <261, 16, 27, 11, 15, 0, 1, [0, 0, 0, 0, 1, 1, 0, 0]>, <262, 17, 28, 11, 15, 0, 1, [0, 0, 0, 0, 1, 1, 0, 0]>, <263, 18, 29, 11, 15, 0, 1, [0, 0, 0, 0, 1, 1, 0, 0]>, <264, 0, 15, 15, 16, 0, 0, [0, 0, 0, 1, 1, 0, 0, 0]>, <265, 1, 16, 15, 16, 0, 0, [0, 0, 0, 1, 1, 0, 0, 0]>, <266, 2, 17, 15, 16, 0, 0, [0, 0, 0, 1, 1, 0, 0, 0]>, <267, 3, 18, 15, 16, 0, 0, [0, 0, 0, 1, 1, 0, 0, 0]>, <268, 4, 19, 15, 16, 0, 0, [0, 0, 0, 1, 1, 0, 0, 0]>, <269, 5, 20, 15, 16, 0, 0, [0, 0, 0, 1, 1, 0, 0, 0]>, <270, 6, 21, 15, 16, 0, 0, [0, 0, 0, 1, 1, 0, 0, 0]>, <271, 7, 22, 15, 16, 0, 0, [0, 0, 0, 1, 1, 0, 0, 0]>, <272, 8, 23, 15, 16, 0, 0, [0, 0, 0, 1, 1, 0, 0, 0]>, <273, 9, 24, 15, 16, 0, 0, [0, 0, 0, 1, 1, 0, 0, 0]>, <274, 10, 25, 15, 16, 0, 0, [0, 0, 0, 1, 1, 0, 0, 0]>, <275, 11, 26, 15, 16, 0, 0, [0, 0, 0, 1, 1, 0, 0, 0]>, <276, 12, 27, 15, 16, 0, 0, [0, 0, 0, 1, 1, 0, 0, 0]>, <277, 13, 28, 15, 16, 0, 0, [0, 0, 0, 1, 1, 0, 0, 0]>, <278, 14, 29, 15, 16, 0, 0, [0, 0, 0, 1, 1, 0, 0, 0]>, <279, 0, 15, 15, 17, 0, 1, [0, 0, 0, 0, 0, 0, 1, 1]>, <280, 1, 16, 15, 17, 0, 1, [0, 0, 0, 0, 0, 0, 1, 1]>, <281, 2, 17, 15, 17, 0, 1, [0, 0, 0, 0, 0, 0, 1, 1]>, <282, 3, 18, 15, 17, 0, 1, [0, 0, 0, 0, 0, 0, 1, 1]>, <283, 4, 19, 15, 17, 0, 1, [0, 0, 0, 0, 0, 0, 1, 1]>, <284, 5, 20, 15, 17, 0, 1, [0, 0, 0, 0, 0, 0, 1, 1]>, <285, 6, 21, 15, 17, 0, 1, [0, 0, 0, 0, 0, 0, 1, 1]>, <286, 7, 22, 15, 17, 0, 1, [0, 0, 0, 0, 0, 0, 1, 1]>, <287, 8, 23, 15, 17, 0, 1, [0, 0, 0, 0, 0, 0, 1, 1]>, <288, 9, 24, 15, 17, 0, 1, [0, 0, 0, 0, 0, 0, 1, 1]>, <289, 10, 25, 15, 17, 0, 1, [0, 0, 0, 0, 0, 0, 1, 1]>, <290, 11, 26, 15, 17, 0, 1, [0, 0, 0, 0, 0, 0, 1, 1]>, <291, 12, 27, 15, 17, 0, 1, [0, 0, 0, 0, 0, 0, 1, 1]>, <292, 13, 28, 15, 17, 0, 1, [0, 0, 0, 0, 0, 0, 1, 1]>, <293, 14, 29, 15, 17, 0, 1, [0, 0, 0, 0, 0, 0, 1, 1]>, <294, 0, 13, 13, 18, 0, 1, [1, 1, 0, 0, 0, 0, 0, 0]>, <295, 1, 14, 13, 18, 0, 1, [1, 1, 0, 0, 0, 0, 0, 0]>, <296, 2, 15, 13, 18, 0, 1, [1, 1, 0, 0, 0, 0, 0, 0]>, <297, 3, 16, 13, 18, 0, 1, [1, 1, 0, 0, 0, 0, 0, 0]>, <298, 4, 17, 13, 18, 0, 1, [1, 1, 0, 0, 0, 0, 0, 0]>, <299, 5, 18, 13, 18, 0, 1, [1, 1, 0, 0, 0, 0, 0, 0]>, <300, 7, 20, 13, 18, 0, 1, [1, 1, 0, 0, 0, 0, 0, 0]>, <301, 8, 21, 13, 18, 0, 1, [1, 1, 0, 0, 0, 0, 0, 0]>, <302, 9, 22, 13, 18, 0, 1, [1, 1, 0, 0, 0, 0, 0, 0]>, <303, 10, 23, 13, 18, 0, 1, [1, 1, 0, 0, 0, 0, 0, 0]>, <304, 11, 24, 13, 18, 0, 1, [1, 1, 0, 0, 0, 0, 0, 0]>, <305, 12, 25, 13, 18, 0, 1, [1, 1, 0, 0, 0, 0, 0, 0]>, <306, 13, 26, 13, 18, 0, 1, [1, 1, 0, 0, 0, 0, 0, 0]>, <307, 14, 27, 13, 18, 0, 1, [1, 1, 0, 0, 0, 0, 0, 0]>, <308, 15, 28, 13, 18, 0, 1, [1, 1, 0, 0, 0, 0, 0, 0]>, <309, 16, 29, 13, 18, 0, 1, [1, 1, 0, 0, 0, 0, 0, 0]>, <310, 0, 12, 12, 19, 0, 1, [0, 0, 1, 1, 0, 0, 0, 0]>, <311, 1, 13, 12, 19, 0, 1, [0, 0, 1, 1, 0, 0, 0, 0]>, <312, 2, 14, 12, 19, 0, 1, [0, 0, 1, 1, 0, 0, 0, 0]>, <313, 3, 15, 12, 19, 0, 1, [0, 0, 1, 1, 0, 0, 0, 0]>, <314, 4, 16, 12, 19, 0, 1, [0, 0, 1, 1, 0, 0, 0, 0]>, <315, 5, 17, 12, 19, 0, 1, [0, 0, 1, 1, 0, 0, 0, 0]>, <316, 8, 20, 12, 19, 0, 1, [0, 0, 1, 1, 0, 0, 0, 0]>, <317, 9, 21, 12, 19, 0, 1, [0, 0, 1, 1, 0, 0, 0, 0]>, <318, 10, 22, 12, 19, 0, 1, [0, 0, 1, 1, 0, 0, 0, 0]>, <319, 11, 23, 12, 19, 0, 1, [0, 0, 1, 1, 0, 0, 0, 0]>, <320, 12, 24, 12, 19, 0, 1, [0, 0, 1, 1, 0, 0, 0, 0]>, <321, 13, 25, 12, 19, 0, 1, [0, 0, 1, 1, 0, 0, 0, 0]>, <322, 14, 26, 12, 19, 0, 1, [0, 0, 1, 1, 0, 0, 0, 0]>, <323, 15, 27, 12, 19, 0, 1, [0, 0, 1, 1, 0, 0, 0, 0]>, <324, 16, 28, 12, 19, 0, 1, [0, 0, 1, 1, 0, 0, 0, 0]>, <325, 17, 29, 12, 19, 0, 1, [0, 0, 1, 1, 0, 0, 0, 0]>, <326, 0, 14, 14, 20, 0, 0, [0, 0, 0, 0, 0, 0, 1, 1]>, <327, 1, 15, 14, 20, 0, 0, [0, 0, 0, 0, 0, 0, 1, 1]>, <328, 2, 16, 14, 20, 0, 0, [0, 0, 0, 0, 0, 0, 1, 1]>, <329, 3, 17, 14, 20, 0, 0, [0, 0, 0, 0, 0, 0, 1, 1]>, <330, 4, 18, 14, 20, 0, 0, [0, 0, 0, 0, 0, 0, 1, 1]>, <331, 5, 19, 14, 20, 0, 0, [0, 0, 0, 0, 0, 0, 1, 1]>, <332, 6, 20, 14, 20, 0, 0, [0, 0, 0, 0, 0, 0, 1, 1]>, <333, 7, 21, 14, 20, 0, 0, [0, 0, 0, 0, 0, 0, 1, 1]>, <334, 8, 22, 14, 20, 0, 0, [0, 0, 0, 0, 0, 0, 1, 1]>, <335, 9, 23, 14, 20, 0, 0, [0, 0, 0, 0, 0, 0, 1, 1]>, <336, 10, 24, 14, 20, 0, 0, [0, 0, 0, 0, 0, 0, 1, 1]>, <337, 11, 25, 14, 20, 0, 0, [0, 0, 0, 0, 0, 0, 1, 1]>, <338, 12, 26, 14, 20, 0, 0, [0, 0, 0, 0, 0, 0, 1, 1]>, <339, 13, 27, 14, 20, 0, 0, [0, 0, 0, 0, 0, 0, 1, 1]>, <340, 14, 28, 14, 20, 0, 0, [0, 0, 0, 0, 0, 0, 1, 1]>, <341, 15, 29, 14, 20, 0, 0, [0, 0, 0, 0, 0, 0, 1, 1]>, <342, 0, 15, 15, 21, 0, 0, [0, 0, 0, 0, 0, 1, 1, 0]>, <343, 1, 16, 15, 21, 0, 0, [0, 0, 0, 0, 0, 1, 1, 0]>, <344, 2, 17, 15, 21, 0, 0, [0, 0, 0, 0, 0, 1, 1, 0]>, <345, 3, 18, 15, 21, 0, 0, [0, 0, 0, 0, 0, 1, 1, 0]>, <346, 4, 19, 15, 21, 0, 0, [0, 0, 0, 0, 0, 1, 1, 0]>, <347, 5, 20, 15, 21, 0, 0, [0, 0, 0, 0, 0, 1, 1, 0]>, <348, 6, 21, 15, 21, 0, 0, [0, 0, 0, 0, 0, 1, 1, 0]>, <349, 7, 22, 15, 21, 0, 0, [0, 0, 0, 0, 0, 1, 1, 0]>, <350, 8, 23, 15, 21, 0, 0, [0, 0, 0, 0, 0, 1, 1, 0]>, <351, 9, 24, 15, 21, 0, 0, [0, 0, 0, 0, 0, 1, 1, 0]>, <352, 10, 25, 15, 21, 0, 0, [0, 0, 0, 0, 0, 1, 1, 0]>, <353, 11, 26, 15, 21, 0, 0, [0, 0, 0, 0, 0, 1, 1, 0]>, <354, 12, 27, 15, 21, 0, 0, [0, 0, 0, 0, 0, 1, 1, 0]>, <355, 13, 28, 15, 21, 0, 0, [0, 0, 0, 0, 0, 1, 1, 0]>, <356, 14, 29, 15, 21, 0, 0, [0, 0, 0, 0, 0, 1, 1, 0]>};
